Copyright (C) 2013-2015, Filipe Brandao
Build (method = -2)
  #dp: 1354
  Step-3' Graph: 73 vertices and 763 arcs (0.00s)
  Step-4' Graph: 71 vertices and 759 arcs (0.00s)
  #V4/#V3 = 0.97
  #A4/#A3 = 0.99
Ready! (0.00s)
Optimize a model with 109 rows, 760 columns and 2142 nonzeros
Found heuristic solution: objective 31
Presolve removed 18 rows and 19 columns
Presolve time: 0.01s
Presolved: 91 rows, 741 columns, 2081 nonzeros
Variable types: 0 continuous, 741 integer (370 binary)
Optimize a model with 91 rows, 741 columns and 2081 nonzeros
Presolved: 91 rows, 741 columns, 2081 nonzeros

Root barrier log...

Ordering time: 0.00s

Barrier statistics:
 AA' NZ     : 1.232e+03
 Factor NZ  : 2.551e+03
 Factor Ops : 9.513e+04 (less than 1 second per iteration)
 Threads    : 1

                  Objective                Residual
Iter       Primal          Dual         Primal    Dual     Compl     Time
   0   6.21792544e+02 -2.07090748e+03  1.66e+03 8.86e-02  1.08e+01     0s
   1   1.72372838e+02 -7.45150215e+02  1.98e+02 5.55e-16  1.59e+00     0s
   2   6.52844117e+01 -2.05918724e+02  2.46e+01 2.09e-03  2.79e-01     0s
   3   3.46219521e+01 -1.27177785e+01  1.61e+00 5.55e-16  3.59e-02     0s
   4   2.54350081e+01  8.60076254e+00  3.03e-01 2.43e-16  1.17e-02     0s
   5   2.39331877e+01  1.37330606e+01  2.00e-01 3.94e-16  7.05e-03     0s
   6   2.30835570e+01  1.50478399e+01  1.40e-01 2.94e-16  5.52e-03     0s
   7   2.18565984e+01  1.68990221e+01  6.73e-02 1.60e-16  3.38e-03     0s
   8   2.11949776e+01  1.90877809e+01  2.75e-02 2.22e-16  1.43e-03     0s
   9   2.07566057e+01  1.99297768e+01  7.12e-03 1.67e-16  5.57e-04     0s
  10   2.06279477e+01  2.02019509e+01  3.13e-03 1.30e-16  2.86e-04     0s
  11   2.05717960e+01  2.03239571e+01  1.73e-03 1.87e-16  1.67e-04     0s
  12   2.05352758e+01  2.04094710e+01  9.55e-04 2.76e-16  8.46e-05     0s
  13   2.05158774e+01  2.04375320e+01  5.94e-04 1.77e-16  5.27e-05     0s
  14   2.04831510e+01  2.04542238e+01  1.26e-04 2.22e-16  1.94e-05     0s
  15   2.04736928e+01  2.04686990e+01  7.45e-06 2.65e-16  3.35e-06     0s
  16   2.04727563e+01  2.04725232e+01  1.53e-07 2.22e-16  1.56e-07     0s
  17   2.04727273e+01  2.04727271e+01  6.80e-11 3.33e-16  1.68e-10     0s
  18   2.04727273e+01  2.04727273e+01  4.34e-12 1.48e-16  2.24e-16     0s

Barrier solved model in 18 iterations and 0.01 seconds
Optimal objective 2.04727273e+01


Root relaxation: objective 2.047273e+01, 96 iterations, 0.01 seconds

    Nodes    |    Current Node    |     Objective Bounds      |     Work
 Expl Unexpl |  Obj  Depth IntInf | Incumbent    BestBd   Gap | It/Node Time

     0     0   20.47273    0   30   31.00000   20.47273  34.0%     -    0s
H    0     0                      27.0000000   20.47273  24.2%     -    0s
H    0     0                      21.0000000   20.47273  2.51%     -    0s

Explored 0 nodes (217 simplex iterations) in 0.03 seconds
Thread count was 1 (of 4 available processors)

Optimal solution found (tolerance 0.00e+00)
Best objective 2.100000000000e+01, best bound 2.100000000000e+01, gap 0.0%
Preprocessing time: 0.00 seconds
Gurobi run time: 0.03 seconds
Total run time: 0.03 seconds
Objective: 21
Solution:
1 x [i=1, i=32]
1 x [i=2, i=31]
2 x [i=3, i=29]
1 x [i=4, i=28]
1 x [i=5, i=25]
1 x [i=5, i=38]
2 x [i=6, i=24]
1 x [i=7, i=33, i=37]
1 x [i=8, i=21]
1 x [i=9, i=19]
1 x [i=10, i=27, i=34]
1 x [i=11, i=14]
1 x [i=12, i=13]
1 x [i=14, i=26]
1 x [i=15, i=20, i=36]
1 x [i=16, i=26, i=28]
1 x [i=17, i=22, i=36]
1 x [i=18, i=19, i=35]
1 x [i=23, i=27, i=30, i=34]
